language Essence 1.3

letting costTC be
        function((1, 1) --> 2, (1, 2) --> 8, (1, 3) --> 9, (1, 4) --> 1, (1, 5) --> 7, (2, 1) --> 6, (2, 2) --> 1,
                 (2, 3) --> 3, (2, 4) --> 3, (2, 5) --> 9, (3, 1) --> 2, (3, 2) --> 7, (3, 3) --> 9, (3, 4) --> 4,
                 (3, 5) --> 3, (4, 1) --> 8, (4, 2) --> 1, (4, 3) --> 9, (4, 4) --> 3, (4, 5) --> 4, (5, 1) --> 4,
                 (5, 2) --> 5, (5, 3) --> 4, (5, 4) --> 9, (5, 5) --> 9, (6, 1) --> 6, (6, 2) --> 7, (6, 3) --> 5,
                 (6, 4) --> 6, (6, 5) --> 3, (7, 1) --> 3, (7, 2) --> 4, (7, 3) --> 5, (7, 4) --> 3, (7, 5) --> 5,
                 (8, 1) --> 1, (8, 2) --> 8, (8, 3) --> 8, (8, 4) --> 5, (8, 5) --> 3, (9, 1) --> 8, (9, 2) --> 9,
                 (9, 3) --> 4, (9, 4) --> 5, (9, 5) --> 4, (10, 1) --> 8, (10, 2) --> 6, (10, 3) --> 6, (10, 4) --> 5,
                 (10, 5) --> 6, (11, 1) --> 6, (11, 2) --> 5, (11, 3) --> 6, (11, 4) --> 6, (11, 5) --> 7,
                 (12, 1) --> 4, (12, 2) --> 2, (12, 3) --> 6, (12, 4) --> 6, (12, 5) --> 1, (13, 1) --> 9,
                 (13, 2) --> 9, (13, 3) --> 1, (13, 4) --> 4, (13, 5) --> 7, (14, 1) --> 5, (14, 2) --> 6,
                 (14, 3) --> 2, (14, 4) --> 8, (14, 5) --> 5, (15, 1) --> 2, (15, 2) --> 7, (15, 3) --> 9,
                 (15, 4) --> 6, (15, 5) --> 9, (16, 1) --> 5, (16, 2) --> 6, (16, 3) --> 6, (16, 4) --> 4,
                 (16, 5) --> 2, (17, 1) --> 2, (17, 2) --> 2, (17, 3) --> 6, (17, 4) --> 6, (17, 5) --> 3,
                 (18, 1) --> 3, (18, 2) --> 2, (18, 3) --> 5, (18, 4) --> 8, (18, 5) --> 4, (19, 1) --> 1,
                 (19, 2) --> 9, (19, 3) --> 5, (19, 4) --> 2, (19, 5) --> 2)
letting costWT be
        function((1, 1) --> 1, (1, 2) --> 4, (1, 3) --> 4, (1, 4) --> 6, (1, 5) --> 4, (1, 6) --> 5, (1, 7) --> 5,
                 (1, 8) --> 4, (1, 9) --> 4, (1, 10) --> 5, (1, 11) --> 2, (1, 12) --> 4, (1, 13) --> 2, (1, 14) --> 4,
                 (1, 15) --> 3, (1, 16) --> 3, (1, 17) --> 6, (1, 18) --> 4, (1, 19) --> 6, (2, 1) --> 1, (2, 2) --> 3,
                 (2, 3) --> 5, (2, 4) --> 2, (2, 5) --> 5, (2, 6) --> 1, (2, 7) --> 3, (2, 8) --> 1, (2, 9) --> 4,
                 (2, 10) --> 3, (2, 11) --> 3, (2, 12) --> 1, (2, 13) --> 1, (2, 14) --> 1, (2, 15) --> 5,
                 (2, 16) --> 4, (2, 17) --> 4, (2, 18) --> 6, (2, 19) --> 5, (3, 1) --> 4, (3, 2) --> 2, (3, 3) --> 1,
                 (3, 4) --> 2, (3, 5) --> 1, (3, 6) --> 3, (3, 7) --> 2, (3, 8) --> 1, (3, 9) --> 3, (3, 10) --> 6,
                 (3, 11) --> 5, (3, 12) --> 5, (3, 13) --> 5, (3, 14) --> 3, (3, 15) --> 6, (3, 16) --> 2,
                 (3, 17) --> 3, (3, 18) --> 6, (3, 19) --> 2, (4, 1) --> 5, (4, 2) --> 4, (4, 3) --> 5, (4, 4) --> 2,
                 (4, 5) --> 6, (4, 6) --> 1, (4, 7) --> 2, (4, 8) --> 2, (4, 9) --> 3, (4, 10) --> 6, (4, 11) --> 4,
                 (4, 12) --> 1, (4, 13) --> 6, (4, 14) --> 4, (4, 15) --> 3, (4, 16) --> 5, (4, 17) --> 2,
                 (4, 18) --> 6, (4, 19) --> 5, (5, 1) --> 6, (5, 2) --> 1, (5, 3) --> 2, (5, 4) --> 6, (5, 5) --> 4,
                 (5, 6) --> 2, (5, 7) --> 3, (5, 8) --> 5, (5, 9) --> 6, (5, 10) --> 2, (5, 11) --> 6, (5, 12) --> 2,
                 (5, 13) --> 4, (5, 14) --> 1, (5, 15) --> 3, (5, 16) --> 1, (5, 17) --> 5, (5, 18) --> 1,
                 (5, 19) --> 4, (6, 1) --> 4, (6, 2) --> 3, (6, 3) --> 1, (6, 4) --> 1, (6, 5) --> 4, (6, 6) --> 6,
                 (6, 7) --> 2, (6, 8) --> 2, (6, 9) --> 5, (6, 10) --> 6, (6, 11) --> 4, (6, 12) --> 6, (6, 13) --> 4,
                 (6, 14) --> 4, (6, 15) --> 3, (6, 16) --> 5, (6, 17) --> 3, (6, 18) --> 1, (6, 19) --> 5, (7, 1) --> 5,
                 (7, 2) --> 2, (7, 3) --> 2, (7, 4) --> 4, (7, 5) --> 5, (7, 6) --> 4, (7, 7) --> 4, (7, 8) --> 1,
                 (7, 9) --> 2, (7, 10) --> 3, (7, 11) --> 6, (7, 12) --> 4, (7, 13) --> 5, (7, 14) --> 3, (7, 15) --> 6,
                 (7, 16) --> 1, (7, 17) --> 2, (7, 18) --> 4, (7, 19) --> 6, (8, 1) --> 4, (8, 2) --> 5, (8, 3) --> 5,
                 (8, 4) --> 2, (8, 5) --> 3, (8, 6) --> 1, (8, 7) --> 4, (8, 8) --> 6, (8, 9) --> 5, (8, 10) --> 3,
                 (8, 11) --> 3, (8, 12) --> 1, (8, 13) --> 2, (8, 14) --> 1, (8, 15) --> 5, (8, 16) --> 2,
                 (8, 17) --> 4, (8, 18) --> 6, (8, 19) --> 6, (9, 1) --> 6, (9, 2) --> 1, (9, 3) --> 6, (9, 4) --> 1,
                 (9, 5) --> 5, (9, 6) --> 5, (9, 7) --> 4, (9, 8) --> 4, (9, 9) --> 6, (9, 10) --> 6, (9, 11) --> 5,
                 (9, 12) --> 4, (9, 13) --> 6, (9, 14) --> 6, (9, 15) --> 1, (9, 16) --> 4, (9, 17) --> 1,
                 (9, 18) --> 4, (9, 19) --> 5, (10, 1) --> 1, (10, 2) --> 5, (10, 3) --> 2, (10, 4) --> 5,
                 (10, 5) --> 4, (10, 6) --> 1, (10, 7) --> 1, (10, 8) --> 6, (10, 9) --> 5, (10, 10) --> 6,
                 (10, 11) --> 3, (10, 12) --> 3, (10, 13) --> 2, (10, 14) --> 6, (10, 15) --> 6, (10, 16) --> 6,
                 (10, 17) --> 6, (10, 18) --> 5, (10, 19) --> 2, (11, 1) --> 3, (11, 2) --> 6, (11, 3) --> 2,
                 (11, 4) --> 4, (11, 5) --> 5, (11, 6) --> 2, (11, 7) --> 5, (11, 8) --> 3, (11, 9) --> 1,
                 (11, 10) --> 1, (11, 11) --> 1, (11, 12) --> 4, (11, 13) --> 1, (11, 14) --> 5, (11, 15) --> 2,
                 (11, 16) --> 6, (11, 17) --> 1, (11, 18) --> 1, (11, 19) --> 6, (12, 1) --> 2, (12, 2) --> 4,
                 (12, 3) --> 5, (12, 4) --> 6, (12, 5) --> 4, (12, 6) --> 3, (12, 7) --> 6, (12, 8) --> 6,
                 (12, 9) --> 1, (12, 10) --> 1, (12, 11) --> 3, (12, 12) --> 1, (12, 13) --> 3, (12, 14) --> 6,
                 (12, 15) --> 3, (12, 16) --> 6, (12, 17) --> 1, (12, 18) --> 5, (12, 19) --> 5, (13, 1) --> 6,
                 (13, 2) --> 2, (13, 3) --> 2, (13, 4) --> 3, (13, 5) --> 1, (13, 6) --> 3, (13, 7) --> 1,
                 (13, 8) --> 1, (13, 9) --> 1, (13, 10) --> 4, (13, 11) --> 3, (13, 12) --> 4, (13, 13) --> 6,
                 (13, 14) --> 2, (13, 15) --> 3, (13, 16) --> 6, (13, 17) --> 5, (13, 18) --> 4, (13, 19) --> 6,
                 (14, 1) --> 2, (14, 2) --> 3, (14, 3) --> 1, (14, 4) --> 2, (14, 5) --> 4, (14, 6) --> 4,
                 (14, 7) --> 3, (14, 8) --> 4, (14, 9) --> 3, (14, 10) --> 1, (14, 11) --> 1, (14, 12) --> 2,
                 (14, 13) --> 5, (14, 14) --> 5, (14, 15) --> 5, (14, 16) --> 3, (14, 17) --> 2, (14, 18) --> 2,
                 (14, 19) --> 2, (15, 1) --> 6, (15, 2) --> 6, (15, 3) --> 1, (15, 4) --> 1, (15, 5) --> 3,
                 (15, 6) --> 5, (15, 7) --> 1, (15, 8) --> 3, (15, 9) --> 4, (15, 10) --> 2, (15, 11) --> 6,
                 (15, 12) --> 5, (15, 13) --> 4, (15, 14) --> 5, (15, 15) --> 5, (15, 16) --> 4, (15, 17) --> 5,
                 (15, 18) --> 3, (15, 19) --> 6, (16, 1) --> 4, (16, 2) --> 2, (16, 3) --> 3, (16, 4) --> 6,
                 (16, 5) --> 6, (16, 6) --> 4, (16, 7) --> 6, (16, 8) --> 1, (16, 9) --> 3, (16, 10) --> 1,
                 (16, 11) --> 2, (16, 12) --> 6, (16, 13) --> 5, (16, 14) --> 6, (16, 15) --> 2, (16, 16) --> 3,
                 (16, 17) --> 5, (16, 18) --> 1, (16, 19) --> 5, (17, 1) --> 3, (17, 2) --> 1, (17, 3) --> 1,
                 (17, 4) --> 6, (17, 5) --> 2, (17, 6) --> 6, (17, 7) --> 4, (17, 8) --> 4, (17, 9) --> 6,
                 (17, 10) --> 2, (17, 11) --> 1, (17, 12) --> 3, (17, 13) --> 1, (17, 14) --> 5, (17, 15) --> 3,
                 (17, 16) --> 6, (17, 17) --> 2, (17, 18) --> 1, (17, 19) --> 1, (18, 1) --> 4, (18, 2) --> 3,
                 (18, 3) --> 2, (18, 4) --> 3, (18, 5) --> 3, (18, 6) --> 1, (18, 7) --> 6, (18, 8) --> 3,
                 (18, 9) --> 6, (18, 10) --> 2, (18, 11) --> 3, (18, 12) --> 3, (18, 13) --> 3, (18, 14) --> 5,
                 (18, 15) --> 1, (18, 16) --> 5, (18, 17) --> 4, (18, 18) --> 4, (18, 19) --> 2, (19, 1) --> 1,
                 (19, 2) --> 4, (19, 3) --> 6, (19, 4) --> 5, (19, 5) --> 6, (19, 6) --> 1, (19, 7) --> 5,
                 (19, 8) --> 2, (19, 9) --> 2, (19, 10) --> 3, (19, 11) --> 5, (19, 12) --> 6, (19, 13) --> 4,
                 (19, 14) --> 5, (19, 15) --> 1, (19, 16) --> 5, (19, 17) --> 6, (19, 18) --> 4, (19, 19) --> 5,
                 (20, 1) --> 6, (20, 2) --> 5, (20, 3) --> 3, (20, 4) --> 3, (20, 5) --> 1, (20, 6) --> 6,
                 (20, 7) --> 5, (20, 8) --> 3, (20, 9) --> 3, (20, 10) --> 4, (20, 11) --> 1, (20, 12) --> 3,
                 (20, 13) --> 1, (20, 14) --> 1, (20, 15) --> 4, (20, 16) --> 2, (20, 17) --> 6, (20, 18) --> 5,
                 (20, 19) --> 1, (21, 1) --> 6, (21, 2) --> 3, (21, 3) --> 1, (21, 4) --> 1, (21, 5) --> 1,
                 (21, 6) --> 5, (21, 7) --> 6, (21, 8) --> 6, (21, 9) --> 6, (21, 10) --> 6, (21, 11) --> 3,
                 (21, 12) --> 3, (21, 13) --> 3, (21, 14) --> 3, (21, 15) --> 4, (21, 16) --> 4, (21, 17) --> 5,
                 (21, 18) --> 1, (21, 19) --> 1, (22, 1) --> 6, (22, 2) --> 4, (22, 3) --> 4, (22, 4) --> 3,
                 (22, 5) --> 1, (22, 6) --> 3, (22, 7) --> 6, (22, 8) --> 5, (22, 9) --> 4, (22, 10) --> 6,
                 (22, 11) --> 5, (22, 12) --> 3, (22, 13) --> 4, (22, 14) --> 3, (22, 15) --> 3, (22, 16) --> 2,
                 (22, 17) --> 3, (22, 18) --> 3, (22, 19) --> 1, (23, 1) --> 5, (23, 2) --> 1, (23, 3) --> 6,
                 (23, 4) --> 5, (23, 5) --> 1, (23, 6) --> 4, (23, 7) --> 1, (23, 8) --> 1, (23, 9) --> 5,
                 (23, 10) --> 4, (23, 11) --> 1, (23, 12) --> 5, (23, 13) --> 6, (23, 14) --> 6, (23, 15) --> 5,
                 (23, 16) --> 2, (23, 17) --> 6, (23, 18) --> 4, (23, 19) --> 5, (24, 1) --> 2, (24, 2) --> 3,
                 (24, 3) --> 6, (24, 4) --> 2, (24, 5) --> 2, (24, 6) --> 2, (24, 7) --> 1, (24, 8) --> 4,
                 (24, 9) --> 3, (24, 10) --> 2, (24, 11) --> 2, (24, 12) --> 5, (24, 13) --> 5, (24, 14) --> 3,
                 (24, 15) --> 4, (24, 16) --> 2, (24, 17) --> 5, (24, 18) --> 5, (24, 19) --> 3, (25, 1) --> 1,
                 (25, 2) --> 6, (25, 3) --> 4, (25, 4) --> 3, (25, 5) --> 2, (25, 6) --> 6, (25, 7) --> 3,
                 (25, 8) --> 4, (25, 9) --> 1, (25, 10) --> 5, (25, 11) --> 3, (25, 12) --> 4, (25, 13) --> 2,
                 (25, 14) --> 6, (25, 15) --> 1, (25, 16) --> 5, (25, 17) --> 6, (25, 18) --> 3, (25, 19) --> 5,
                 (26, 1) --> 2, (26, 2) --> 6, (26, 3) --> 6, (26, 4) --> 2, (26, 5) --> 2, (26, 6) --> 6,
                 (26, 7) --> 2, (26, 8) --> 6, (26, 9) --> 2, (26, 10) --> 3, (26, 11) --> 1, (26, 12) --> 2,
                 (26, 13) --> 2, (26, 14) --> 4, (26, 15) --> 3, (26, 16) --> 5, (26, 17) --> 1, (26, 18) --> 1,
                 (26, 19) --> 6)
letting demand be function(1 --> 15, 2 --> 15, 3 --> 15, 4 --> 15, 5 --> 15)
letting maxCost be 44
letting n_customer be 5
letting n_transshipment be 19
letting n_warehouses be 26
letting stock be
        function(1 --> 6, 2 --> 1, 3 --> 8, 4 --> 1, 5 --> 2, 6 --> 4, 7 --> 5, 8 --> 9, 9 --> 5, 10 --> 3, 11 --> 3,
                 12 --> 5, 13 --> 7, 14 --> 5, 15 --> 3, 16 --> 12, 17 --> 10, 18 --> 12, 19 --> 2, 20 --> 6, 21 --> 12,
                 22 --> 3, 23 --> 1, 24 --> 11, 25 --> 8, 26 --> 4)
